p edge 1000 2400
e 1 269
e 1 557
e 1 270
e 1 558
e 1 913
e 1 914
e 2 559
e 2 560
e 2 915
e 2 916
e 2 271
e 2 272
e 3 321
e 3 322
e 3 517
e 3 518
e 3 594
e 3 757
e 3 365
e 3 366
e 3 369
e 3 370
e 3 277
e 3 278
e 3 473
e 3 474
e 3 253
e 3 254
e 3 593
e 3 758
e 4 323
e 4 324
e 4 759
e 4 519
e 4 520
e 4 596
e 4 760
e 4 595
e 4 367
e 4 368
e 4 371
e 4 372
e 4 279
e 4 280
e 4 475
e 4 476
e 4 255
e 4 256
e 5 945
e 5 901
e 5 902
e 5 946
e 5 274
e 5 273
e 5 729
e 5 730
e 5 249
e 5 250
e 5 997
e 5 998
e 6 732
e 6 999
e 6 903
e 6 904
e 6 948
e 6 1000
e 6 947
e 6 275
e 6 276
e 6 731
e 6 252
e 6 251
e 7 485
e 7 486
e 7 745
e 7 746
e 7 941
e 7 942
e 7 245
e 7 246
e 7 229
e 7 230
e 8 748
e 8 231
e 8 487
e 8 488
e 8 747
e 8 232
e 8 943
e 8 944
e 8 247
e 8 248
e 9 673
e 9 674
e 9 357
e 9 358
e 9 519
e 9 397
e 9 398
e 9 517
e 9 677
e 9 313
e 9 314
e 9 966
e 9 965
e 9 678
e 10 675
e 10 676
e 10 518
e 10 359
e 10 360
e 10 520
e 10 679
e 10 680
e 10 399
e 10 400
e 10 968
e 10 967
e 10 315
e 10 316
e 11 577
e 11 578
e 11 830
e 11 829
e 11 413
e 11 813
e 11 814
e 11 414
e 11 401
e 11 402
e 11 309
e 11 310
e 11 381
e 11 382
e 12 832
e 12 579
e 12 580
e 12 815
e 12 816
e 12 831
e 12 403
e 12 404
e 12 415
e 12 311
e 12 312
e 12 416
e 12 383
e 12 384
e 13 869
e 13 870
e 13 845
e 13 749
e 13 750
e 13 846
e 13 625
e 13 626
e 13 437
e 13 438
e 13 729
e 13 731
e 14 848
e 14 871
e 14 872
e 14 751
e 14 752
e 14 627
e 14 628
e 14 847
e 14 439
e 14 440
e 14 730
e 14 732
e 15 769
e 15 529
e 15 901
e 15 903
e 15 530
e 15 621
e 15 205
e 15 206
e 15 622
e 15 465
e 15 466
e 15 469
e 15 470
e 15 633
e 15 634
e 15 689
e 15 770
e 15 690
e 16 771
e 16 636
e 16 902
e 16 904
e 16 692
e 16 531
e 16 207
e 16 208
e 16 532
e 16 467
e 16 468
e 16 691
e 16 623
e 16 471
e 16 472
e 16 772
e 16 635
e 16 624
e 17 561
e 17 485
e 17 487
e 17 562
e 17 301
e 17 302
e 17 497
e 17 498
e 17 665
e 17 666
e 18 486
e 18 488
e 18 563
e 18 303
e 18 304
e 18 564
e 18 499
e 18 500
e 18 667
e 18 668
e 19 617
e 19 618
e 19 717
e 19 718
e 19 593
e 19 595
e 19 861
e 19 862
e 20 619
e 20 620
e 20 719
e 20 720
e 20 594
e 20 596
e 20 863
e 20 864
e 21 545
e 21 546
e 21 773
e 21 774
e 21 617
e 21 829
e 21 619
e 21 989
e 21 990
e 21 465
e 21 937
e 21 467
e 21 725
e 21 726
e 21 938
e 21 317
e 21 318
e 21 831
e 22 547
e 22 548
e 22 775
e 22 776
e 22 618
e 22 939
e 22 620
e 22 940
e 22 466
e 22 468
e 22 991
e 22 727
e 22 728
e 22 832
e 22 992
e 22 830
e 22 319
e 22 320
e 23 658
e 23 329
e 23 330
e 23 657
e 23 377
e 23 378
e 23 281
e 23 282
e 24 380
e 24 331
e 24 332
e 24 659
e 24 660
e 24 379
e 24 284
e 24 283
e 25 321
e 25 323
e 25 453
e 25 454
e 25 837
e 25 541
e 25 542
e 25 838
e 26 322
e 26 324
e 26 839
e 26 455
e 26 456
e 26 840
e 26 543
e 26 544
e 27 833
e 27 834
e 27 709
e 27 710
e 27 969
e 27 970
e 27 685
e 27 686
e 27 825
e 27 473
e 27 826
e 27 475
e 27 541
e 27 543
e 28 835
e 28 828
e 28 711
e 28 712
e 28 971
e 28 972
e 28 687
e 28 688
e 28 836
e 28 474
e 28 827
e 28 476
e 28 542
e 28 544
e 29 481
e 29 482
e 29 773
e 29 775
e 29 978
e 29 425
e 29 426
e 29 977
e 29 621
e 29 623
e 29 785
e 29 786
e 29 501
e 29 502
e 29 729
e 29 732
e 30 979
e 30 483
e 30 484
e 30 774
e 30 776
e 30 427
e 30 428
e 30 622
e 30 624
e 30 787
e 30 788
e 30 503
e 30 504
e 30 730
e 30 731
e 30 980
e 31 705
e 31 706
e 31 709
e 31 993
e 31 711
e 31 994
e 31 909
e 31 910
e 31 629
e 31 630
e 31 697
e 31 698
e 31 893
e 31 894
e 32 707
e 32 708
e 32 710
e 32 712
e 32 995
e 32 911
e 32 912
e 32 996
e 32 631
e 32 632
e 32 699
e 32 700
e 32 895
e 32 896
e 33 621
e 33 969
e 33 813
e 33 329
e 33 333
e 33 331
e 33 493
e 33 334
e 33 815
e 33 494
e 33 553
e 33 565
e 33 566
e 33 554
e 33 693
e 33 624
e 33 971
e 33 694
e 34 816
e 34 696
e 34 556
e 34 695
e 34 972
e 34 330
e 34 555
e 34 332
e 34 622
e 34 495
e 34 496
e 34 970
e 34 335
e 34 567
e 34 568
e 34 814
e 34 336
e 34 623
e 35 865
e 35 866
e 35 645
e 35 646
e 35 890
e 35 601
e 35 949
e 35 950
e 35 889
e 35 602
e 35 569
e 35 570
e 35 509
e 35 510
e 36 867
e 36 572
e 36 647
e 36 648
e 36 892
e 36 891
e 36 868
e 36 951
e 36 952
e 36 571
e 36 604
e 36 603
e 36 511
e 36 512
e 37 833
e 37 835
e 37 265
e 37 266
e 37 633
e 37 209
e 37 210
e 37 981
e 37 982
e 37 569
e 37 571
e 37 635
e 38 834
e 38 636
e 38 267
e 38 268
e 38 984
e 38 211
e 38 212
e 38 983
e 38 634
e 38 570
e 38 836
e 38 572
e 39 417
e 39 418
e 39 845
e 39 847
e 39 721
e 39 722
e 39 787
e 39 373
e 39 374
e 39 633
e 39 885
e 39 636
e 39 785
e 39 886
e 40 419
e 40 420
e 40 887
e 40 888
e 40 846
e 40 848
e 40 786
e 40 723
e 40 724
e 40 375
e 40 376
e 40 788
e 40 634
e 40 635
e 41 577
e 41 579
e 41 201
e 41 202
e 41 337
e 41 338
e 41 989
e 41 991
e 42 578
e 42 580
e 42 203
e 42 204
e 42 339
e 42 340
e 42 990
e 42 992
e 43 961
e 43 962
e 43 805
e 43 806
e 43 713
e 43 714
e 43 689
e 43 665
e 43 691
e 43 249
e 43 251
e 43 667
e 44 963
e 44 668
e 44 807
e 44 808
e 44 715
e 44 716
e 44 690
e 44 692
e 44 666
e 44 250
e 44 252
e 44 964
e 45 925
e 45 597
e 45 598
e 45 926
e 46 928
e 46 927
e 46 599
e 46 600
e 47 721
e 47 229
e 47 550
e 47 231
e 47 297
e 47 298
e 47 365
e 47 462
e 47 367
e 47 209
e 47 905
e 47 211
e 47 565
e 47 567
e 47 906
e 47 723
e 47 549
e 47 461
e 48 908
e 48 230
e 48 551
e 48 232
e 48 552
e 48 299
e 48 300
e 48 366
e 48 463
e 48 368
e 48 210
e 48 212
e 48 566
e 48 724
e 48 568
e 48 722
e 48 464
e 48 907
e 49 541
e 49 273
e 49 275
e 49 857
e 49 858
e 49 797
e 49 798
e 49 544
e 50 274
e 50 276
e 50 543
e 50 859
e 50 860
e 50 542
e 50 799
e 50 800
e 51 609
e 51 610
e 51 293
e 51 294
e 51 777
e 51 778
e 51 817
e 51 818
e 51 437
e 51 534
e 51 439
e 51 533
e 52 611
e 52 612
e 52 295
e 52 296
e 52 780
e 52 779
e 52 440
e 52 819
e 52 820
e 52 438
e 52 535
e 52 536
e 53 637
e 53 889
e 53 891
e 53 893
e 53 638
e 53 895
e 54 640
e 54 890
e 54 892
e 54 894
e 54 639
e 54 896
e 55 609
e 55 641
e 55 611
e 55 325
e 55 326
e 55 642
e 55 845
e 55 557
e 55 301
e 55 559
e 55 848
e 55 949
e 55 303
e 55 951
e 55 581
e 55 582
e 56 610
e 56 643
e 56 612
e 56 583
e 56 327
e 56 328
e 56 584
e 56 558
e 56 847
e 56 560
e 56 644
e 56 302
e 56 952
e 56 950
e 56 304
e 56 846
e 57 849
e 57 817
e 57 965
e 57 967
e 57 841
e 57 842
e 57 909
e 57 819
e 57 911
e 57 369
e 57 850
e 57 371
e 58 966
e 58 818
e 58 843
e 58 844
e 58 910
e 58 912
e 58 370
e 58 851
e 58 372
e 58 968
e 58 820
e 58 852
e 59 497
e 59 965
e 59 765
e 59 968
e 59 393
e 59 394
e 59 766
e 59 273
e 59 499
e 59 276
e 59 309
e 59 662
e 59 311
e 59 661
e 59 285
e 59 286
e 60 767
e 60 966
e 60 967
e 60 498
e 60 395
e 60 396
e 60 664
e 60 274
e 60 275
e 60 500
e 60 310
e 60 663
e 60 312
e 60 768
e 60 287
e 60 288
e 61 961
e 61 963
e 61 933
e 61 934
e 61 753
e 61 754
e 61 341
e 61 342
e 61 821
e 61 793
e 61 794
e 61 221
e 61 222
e 61 822
e 62 962
e 62 964
e 62 823
e 62 935
e 62 936
e 62 824
e 62 755
e 62 756
e 62 343
e 62 344
e 62 795
e 62 796
e 62 223
e 62 224
e 63 269
e 63 271
e 63 537
e 63 538
e 63 809
e 63 810
e 63 305
e 63 306
e 63 441
e 63 442
e 63 317
e 63 319
e 63 977
e 63 979
e 63 345
e 63 346
e 63 357
e 63 359
e 63 873
e 63 874
e 63 377
e 63 379
e 64 270
e 64 272
e 64 539
e 64 540
e 64 811
e 64 812
e 64 307
e 64 308
e 64 443
e 64 444
e 64 318
e 64 320
e 64 978
e 64 980
e 64 347
e 64 348
e 64 358
e 64 360
e 64 875
e 64 876
e 64 378
e 64 380
e 65 801
e 65 802
e 65 997
e 65 999
e 65 465
e 65 793
e 65 468
e 65 533
e 65 918
e 65 535
e 65 537
e 65 917
e 65 539
e 65 381
e 65 795
e 65 383
e 66 803
e 66 796
e 66 998
e 66 1000
e 66 920
e 66 794
e 66 466
e 66 467
e 66 804
e 66 534
e 66 919
e 66 536
e 66 538
e 66 540
e 66 382
e 66 384
e 67 737
e 67 738
e 67 653
e 67 878
e 67 425
e 67 522
e 67 427
e 67 301
e 67 654
e 67 877
e 67 304
e 67 521
e 67 505
e 67 506
e 68 739
e 68 524
e 68 879
e 68 426
e 68 523
e 68 428
e 68 302
e 68 303
e 68 656
e 68 880
e 68 740
e 68 655
e 68 507
e 68 508
e 69 881
e 69 945
e 69 453
e 69 455
e 69 882
e 69 201
e 69 458
e 69 203
e 69 947
e 69 849
e 69 457
e 69 851
e 69 381
e 69 384
e 70 946
e 70 460
e 70 454
e 70 456
e 70 948
e 70 202
e 70 459
e 70 204
e 70 850
e 70 883
e 70 852
e 70 884
e 70 382
e 70 383
e 71 865
e 71 867
e 71 517
e 71 742
e 71 520
e 71 649
e 71 650
e 71 685
e 71 687
e 71 741
e 72 866
e 72 868
e 72 518
e 72 519
e 72 744
e 72 651
e 72 652
e 72 686
e 72 688
e 72 743
e 73 337
e 73 561
e 73 557
e 73 563
e 73 560
e 73 241
e 73 242
e 73 339
e 73 309
e 73 599
e 73 312
e 73 597
e 74 244
e 74 562
e 74 558
e 74 559
e 74 564
e 74 338
e 74 243
e 74 340
e 74 310
e 74 311
e 74 600
e 74 598
e 75 865
e 75 868
e 75 777
e 75 493
e 75 779
e 75 653
e 75 655
e 75 497
e 75 500
e 75 885
e 75 495
e 75 887
e 76 866
e 76 867
e 76 778
e 76 780
e 76 654
e 76 656
e 76 498
e 76 499
e 76 888
e 76 886
e 76 496
e 76 494
e 77 385
e 77 386
e 77 685
e 77 589
e 77 590
e 77 688
e 77 341
e 77 343
e 78 387
e 78 388
e 78 686
e 78 591
e 78 592
e 78 342
e 78 344
e 78 687
e 79 933
e 79 935
e 79 489
e 79 490
e 79 523
e 79 521
e 79 661
e 79 663
e 79 985
e 79 986
e 79 477
e 79 478
e 80 492
e 80 934
e 80 936
e 80 522
e 80 491
e 80 524
e 80 662
e 80 664
e 80 987
e 80 988
e 80 479
e 80 480
e 81 353
e 81 354
e 81 765
e 81 297
e 81 573
e 81 299
e 81 574
e 81 585
e 81 586
e 81 445
e 81 446
e 81 767
e 82 355
e 82 356
e 82 298
e 82 587
e 82 300
e 82 575
e 82 588
e 82 576
e 82 768
e 82 766
e 82 447
e 82 448
e 83 237
e 83 238
e 83 213
e 83 214
e 83 957
e 83 958
e 84 239
e 84 240
e 84 215
e 84 216
e 84 959
e 84 960
e 85 753
e 85 901
e 85 261
e 85 262
e 85 839
e 85 904
e 85 937
e 85 939
e 85 941
e 85 943
e 85 721
e 85 755
e 85 724
e 85 281
e 85 837
e 85 283
e 85 701
e 85 702
e 86 940
e 86 838
e 86 263
e 86 264
e 86 754
e 86 938
e 86 840
e 86 942
e 86 944
e 86 722
e 86 723
e 86 756
e 86 903
e 86 902
e 86 282
e 86 284
e 86 703
e 86 704
e 87 897
e 87 898
e 87 261
e 87 871
e 87 263
e 87 297
e 87 362
e 87 649
e 87 300
e 87 429
e 87 430
e 87 361
e 87 575
e 87 682
e 87 681
e 87 869
e 87 477
e 87 651
e 87 479
e 87 573
e 88 899
e 88 652
e 88 683
e 88 262
e 88 264
e 88 298
e 88 299
e 88 364
e 88 431
e 88 432
e 88 684
e 88 574
e 88 872
e 88 870
e 88 650
e 88 478
e 88 576
e 88 900
e 88 363
e 88 480
e 89 581
e 89 583
e 89 585
e 89 733
e 89 587
e 89 237
e 89 239
e 89 917
e 89 919
e 89 441
e 89 443
e 89 253
e 89 734
e 89 255
e 90 582
e 90 584
e 90 586
e 90 588
e 90 238
e 90 240
e 90 920
e 90 918
e 90 736
e 90 442
e 90 444
e 90 254
e 90 735
e 90 256
e 91 673
e 91 993
e 91 675
e 91 261
e 91 264
e 91 995
e 91 561
e 91 564
e 91 761
e 91 762
e 92 674
e 92 676
e 92 262
e 92 263
e 92 994
e 92 562
e 92 563
e 92 996
e 92 763
e 92 764
e 93 705
e 93 737
e 93 707
e 93 389
e 93 390
e 93 679
e 93 265
e 93 267
e 93 813
e 93 739
e 93 816
e 93 629
e 93 631
e 93 922
e 93 921
e 93 677
e 93 637
e 93 639
e 94 706
e 94 708
e 94 678
e 94 391
e 94 392
e 94 266
e 94 268
e 94 924
e 94 680
e 94 815
e 94 814
e 94 740
e 94 630
e 94 632
e 94 923
e 94 738
e 94 638
e 94 640
e 95 385
e 95 577
e 95 387
e 95 580
e 95 717
e 95 719
e 95 612
e 95 853
e 95 854
e 95 708
e 95 888
e 95 609
e 95 705
e 95 885
e 96 386
e 96 579
e 96 388
e 96 855
e 96 610
e 96 887
e 96 611
e 96 718
e 96 886
e 96 578
e 96 856
e 96 707
e 96 706
e 96 720
e 97 905
e 97 907
e 97 657
e 97 659
e 97 285
e 97 287
e 97 289
e 97 290
e 97 433
e 97 434
e 97 581
e 97 584
e 97 457
e 97 459
e 97 589
e 97 591
e 97 913
e 97 613
e 97 614
e 97 233
e 97 234
e 97 875
e 97 915
e 97 625
e 97 873
e 97 627
e 98 876
e 98 906
e 98 908
e 98 658
e 98 660
e 98 286
e 98 288
e 98 914
e 98 291
e 98 292
e 98 435
e 98 436
e 98 582
e 98 583
e 98 458
e 98 460
e 98 590
e 98 592
e 98 916
e 98 615
e 98 616
e 98 874
e 98 235
e 98 236
e 98 626
e 98 628
e 99 641
e 99 769
e 99 643
e 99 771
e 99 373
e 99 375
e 99 697
e 99 699
e 99 765
e 99 768
e 100 642
e 100 644
e 100 770
e 100 772
e 100 374
e 100 376
e 100 698
e 100 700
e 100 766
e 100 767
e 101 873
e 101 413
e 101 876
e 101 941
e 101 944
e 101 669
e 101 670
e 101 415
e 102 874
e 102 875
e 102 942
e 102 943
e 102 416
e 102 414
e 102 671
e 102 672
e 103 233
e 103 235
e 103 405
e 103 406
e 104 234
e 104 236
e 104 407
e 104 408
e 105 929
e 105 930
e 105 964
e 105 961
e 105 457
e 105 877
e 105 460
e 105 589
e 105 879
e 105 592
e 105 953
e 105 954
e 105 413
e 105 416
e 106 963
e 106 962
e 106 931
e 106 932
e 106 458
e 106 459
e 106 956
e 106 590
e 106 591
e 106 878
e 106 955
e 106 880
e 106 414
e 106 415
e 107 823
e 107 849
e 107 913
e 107 852
e 107 485
e 107 821
e 107 488
e 107 916
e 107 209
e 107 601
e 107 212
e 107 213
e 107 215
e 107 568
e 107 441
e 107 565
e 107 603
e 107 444
e 107 893
e 107 896
e 108 914
e 108 486
e 108 487
e 108 850
e 108 822
e 108 824
e 108 851
e 108 210
e 108 211
e 108 915
e 108 214
e 108 567
e 108 216
e 108 442
e 108 443
e 108 604
e 108 602
e 108 894
e 108 895
e 108 566
e 109 257
e 109 258
e 109 741
e 109 743
e 109 809
e 109 317
e 109 811
e 109 881
e 109 305
e 109 307
e 109 921
e 109 923
e 109 221
e 109 883
e 109 223
e 109 320
e 110 259
e 110 260
e 110 742
e 110 744
e 110 810
e 110 812
e 110 924
e 110 318
e 110 306
e 110 308
e 110 922
e 110 884
e 110 882
e 110 222
e 110 319
e 110 224
e 111 897
e 111 899
e 111 908
e 111 777
e 111 780
e 111 305
e 111 905
e 111 308
e 112 898
e 112 900
e 112 778
e 112 779
e 112 306
e 112 307
e 112 906
e 112 907
e 113 389
e 113 391
e 113 393
e 113 395
e 113 397
e 113 399
e 113 733
e 113 949
e 113 735
e 113 952
e 113 953
e 113 955
e 113 957
e 113 959
e 113 205
e 113 207
e 113 861
e 113 606
e 113 863
e 113 605
e 113 505
e 113 507
e 114 390
e 114 392
e 114 394
e 114 396
e 114 398
e 114 400
e 114 734
e 114 950
e 114 951
e 114 954
e 114 608
e 114 956
e 114 958
e 114 736
e 114 960
e 114 206
e 114 208
e 114 862
e 114 607
e 114 864
e 114 506
e 114 508
e 115 257
e 115 259
e 115 437
e 115 440
e 115 989
e 115 992
e 116 258
e 116 260
e 116 438
e 116 439
e 116 990
e 116 991
e 117 801
e 117 803
e 117 425
e 117 555
e 117 428
e 117 909
e 117 912
e 117 881
e 117 553
e 117 884
e 117 373
e 117 376
e 118 802
e 118 804
e 118 426
e 118 427
e 118 556
e 118 910
e 118 911
e 118 882
e 118 883
e 118 374
e 118 375
e 118 554
e 119 529
e 119 805
e 119 807
e 119 797
e 119 531
e 119 433
e 119 435
e 119 661
e 119 799
e 119 664
e 119 313
e 119 315
e 119 509
e 119 511
e 120 800
e 120 806
e 120 530
e 120 808
e 120 798
e 120 532
e 120 434
e 120 436
e 120 662
e 120 663
e 120 314
e 120 316
e 120 510
e 120 512
e 121 265
e 121 268
e 121 917
e 121 920
e 121 761
e 121 763
e 122 266
e 122 267
e 122 918
e 122 919
e 122 762
e 122 764
e 123 353
e 123 513
e 123 355
e 123 514
e 123 361
e 123 363
e 124 354
e 124 515
e 124 356
e 124 362
e 124 364
e 124 516
e 125 389
e 125 647
e 125 392
e 125 713
e 125 715
e 125 365
e 125 368
e 125 789
e 125 790
e 125 665
e 125 645
e 125 668
e 125 349
e 125 350
e 126 390
e 126 391
e 126 648
e 126 714
e 126 716
e 126 366
e 126 367
e 126 646
e 126 791
e 126 792
e 126 666
e 126 667
e 126 351
e 126 352
e 127 321
e 127 769
e 127 324
e 127 855
e 127 649
e 127 652
e 127 973
e 127 974
e 127 401
e 127 403
e 127 772
e 127 501
e 127 503
e 127 569
e 127 853
e 127 572
e 128 322
e 128 323
e 128 770
e 128 650
e 128 651
e 128 856
e 128 771
e 128 975
e 128 976
e 128 402
e 128 404
e 128 502
e 128 504
e 128 570
e 128 571
e 128 854
e 129 353
e 129 449
e 129 515
e 129 356
e 129 450
e 129 233
e 129 236
e 129 269
e 129 272
e 129 241
e 129 243
e 129 692
e 129 513
e 129 689
e 129 221
e 129 224
e 130 354
e 130 355
e 130 452
e 130 514
e 130 234
e 130 235
e 130 270
e 130 271
e 130 451
e 130 242
e 130 691
e 130 244
e 130 516
e 130 690
e 130 222
e 130 223
e 131 449
e 131 545
e 131 451
e 131 804
e 131 361
e 131 491
e 131 364
e 131 973
e 131 547
e 131 975
e 131 625
e 131 489
e 131 628
e 131 757
e 131 759
e 131 801
e 131 637
e 131 640
e 132 450
e 132 803
e 132 452
e 132 976
e 132 546
e 132 490
e 132 363
e 132 492
e 132 974
e 132 760
e 132 626
e 132 627
e 132 548
e 132 758
e 132 362
e 132 802
e 132 638
e 132 639
e 133 449
e 133 945
e 133 452
e 133 600
e 133 493
e 133 496
e 133 597
e 133 948
e 133 405
e 133 407
e 133 536
e 133 533
e 134 450
e 134 451
e 134 599
e 134 598
e 134 494
e 134 495
e 134 946
e 134 947
e 134 406
e 134 535
e 134 408
e 134 534
e 135 293
e 135 295
e 135 329
e 135 332
e 135 669
e 135 671
e 136 294
e 136 296
e 136 330
e 136 331
e 136 670
e 136 672
e 137 257
e 137 929
e 137 931
e 137 260
e 137 841
e 137 843
e 137 333
e 137 335
e 137 985
e 137 377
e 137 987
e 137 380
e 138 258
e 138 259
e 138 932
e 138 930
e 138 842
e 138 844
e 138 334
e 138 336
e 138 986
e 138 378
e 138 379
e 138 988
e 139 641
e 139 800
e 139 644
e 139 837
e 139 840
e 139 797
e 139 397
e 139 400
e 139 793
e 139 796
e 139 509
e 139 512
e 140 642
e 140 643
e 140 838
e 140 839
e 140 398
e 140 399
e 140 798
e 140 799
e 140 794
e 140 795
e 140 510
e 140 511
e 141 553
e 141 556
e 141 717
e 141 720
e 141 409
e 141 410
e 141 701
e 141 703
e 142 554
e 142 555
e 142 718
e 142 719
e 142 411
e 142 412
e 142 702
e 142 704
e 143 225
e 143 226
e 143 483
e 143 997
e 143 1000
e 143 429
e 143 431
e 143 277
e 143 481
e 143 279
e 143 601
e 143 604
e 144 482
e 144 227
e 144 228
e 144 998
e 144 999
e 144 430
e 144 432
e 144 484
e 144 278
e 144 280
e 144 602
e 144 603
e 145 781
e 145 613
e 145 615
e 145 605
e 145 760
e 145 525
e 145 526
e 145 782
e 145 277
e 145 757
e 145 471
e 145 280
e 145 957
e 145 469
e 145 960
e 145 285
e 145 607
e 145 288
e 146 784
e 146 783
e 146 959
e 146 614
e 146 616
e 146 958
e 146 527
e 146 528
e 146 759
e 146 758
e 146 606
e 146 470
e 146 279
e 146 472
e 146 608
e 146 286
e 146 287
e 146 278
e 147 669
e 147 549
e 147 551
e 147 672
e 148 670
e 148 550
e 148 671
e 148 552
e 149 337
e 149 340
e 149 341
e 149 247
e 149 344
e 149 245
e 150 338
e 150 339
e 150 246
e 150 343
e 150 248
e 150 342
e 151 924
e 151 841
e 151 844
e 151 889
e 151 921
e 151 857
e 151 859
e 151 892
e 151 445
e 151 447
e 152 842
e 152 843
e 152 923
e 152 922
e 152 890
e 152 858
e 152 891
e 152 860
e 152 446
e 152 448
e 153 453
e 153 327
e 153 456
e 153 489
e 153 877
e 153 747
e 153 492
e 153 461
e 153 463
e 153 880
e 153 745
e 153 325
e 153 573
e 153 576
e 154 878
e 154 454
e 154 455
e 154 328
e 154 490
e 154 491
e 154 748
e 154 462
e 154 879
e 154 464
e 154 746
e 154 574
e 154 575
e 154 326
e 155 472
e 155 205
e 155 208
e 155 401
e 155 404
e 155 213
e 155 216
e 155 985
e 155 469
e 155 988
e 156 471
e 156 206
e 156 207
e 156 402
e 156 403
e 156 214
e 156 215
e 156 986
e 156 987
e 156 470
e 157 681
e 157 683
e 157 749
e 157 751
e 157 369
e 157 372
e 157 217
e 157 218
e 157 861
e 157 864
e 158 682
e 158 684
e 158 750
e 158 752
e 158 370
e 158 371
e 158 219
e 158 220
e 158 862
e 158 863
e 159 417
e 159 419
e 159 677
e 159 680
e 159 809
e 159 812
e 159 753
e 159 756
e 159 853
e 159 856
e 159 281
e 159 284
e 160 418
e 160 420
e 160 678
e 160 679
e 160 810
e 160 811
e 160 754
e 160 755
e 160 854
e 160 855
e 160 282
e 160 283
e 161 653
e 161 656
e 161 405
e 161 408
e 161 345
e 161 347
e 162 654
e 162 655
e 162 406
e 162 407
e 162 346
e 162 348
e 163 357
e 163 360
e 163 585
e 163 781
e 163 588
e 163 237
e 163 783
e 163 240
e 163 245
e 163 791
e 163 248
e 163 825
e 163 789
e 163 827
e 163 976
e 163 973
e 164 828
e 164 358
e 164 359
e 164 975
e 164 586
e 164 587
e 164 238
e 164 239
e 164 782
e 164 974
e 164 246
e 164 247
e 164 792
e 164 826
e 164 784
e 164 790
e 165 409
e 165 411
e 165 929
e 165 932
e 165 933
e 165 936
e 165 445
e 165 448
e 165 709
e 165 712
e 165 857
e 165 741
e 165 860
e 165 349
e 165 351
e 165 225
e 165 227
e 165 869
e 165 744
e 165 872
e 165 761
e 165 764
e 166 871
e 166 410
e 166 412
e 166 930
e 166 931
e 166 934
e 166 935
e 166 352
e 166 446
e 166 447
e 166 710
e 166 711
e 166 858
e 166 859
e 166 350
e 166 870
e 166 226
e 166 228
e 166 742
e 166 743
e 166 762
e 166 763
e 167 833
e 167 836
e 167 701
e 167 925
e 167 927
e 167 704
e 168 834
e 168 835
e 168 926
e 168 702
e 168 703
e 168 928
e 169 293
e 169 296
e 169 745
e 169 748
e 169 525
e 169 527
e 169 817
e 169 820
e 169 789
e 169 792
e 169 953
e 169 956
e 170 294
e 170 295
e 170 746
e 170 747
e 170 526
e 170 528
e 170 818
e 170 819
e 170 790
e 170 791
e 170 954
e 170 955
e 171 657
e 171 421
e 171 422
e 171 713
e 171 716
e 171 781
e 171 784
e 171 529
e 171 532
e 171 501
e 171 504
e 171 660
e 172 423
e 172 424
e 172 714
e 172 715
e 172 659
e 172 783
e 172 782
e 172 530
e 172 531
e 172 502
e 172 503
e 172 658
e 173 217
e 173 219
e 173 549
e 173 552
e 174 218
e 174 220
e 174 550
e 174 551
e 175 513
e 175 516
e 175 521
e 175 524
e 175 345
e 175 348
e 175 733
e 175 736
e 176 514
e 176 515
e 176 522
e 176 523
e 176 346
e 176 347
e 176 734
e 176 735
e 177 925
e 177 928
e 177 325
e 177 328
e 178 927
e 178 326
e 178 327
e 178 926
e 179 805
e 179 808
e 179 429
e 179 432
e 179 241
e 179 244
e 179 725
e 179 727
e 180 806
e 180 807
e 180 430
e 180 431
e 180 242
e 180 243
e 180 726
e 180 728
e 181 385
e 181 977
e 181 388
e 181 645
e 181 648
e 181 461
e 181 464
e 181 593
e 181 596
e 181 821
e 181 824
e 181 313
e 181 316
e 181 980
e 182 979
e 182 386
e 182 387
e 182 646
e 182 647
e 182 978
e 182 462
e 182 463
e 182 594
e 182 595
e 182 822
e 182 823
e 182 314
e 182 315
e 183 508
e 183 525
e 183 528
e 183 505
e 183 473
e 183 476
e 183 605
e 183 608
e 184 526
e 184 527
e 184 606
e 184 506
e 184 474
e 184 475
e 184 507
e 184 607
e 185 417
e 185 420
e 185 433
e 185 436
e 185 629
e 185 983
e 185 632
e 185 697
e 185 981
e 185 700
e 186 418
e 186 419
e 186 434
e 186 435
e 186 630
e 186 631
e 186 984
e 186 698
e 186 699
e 186 982
e 187 289
e 187 737
e 187 291
e 187 740
e 187 617
e 187 620
e 187 825
e 187 828
e 188 738
e 188 739
e 188 292
e 188 290
e 188 618
e 188 619
e 188 826
e 188 827
e 189 681
e 189 684
e 189 229
e 189 232
e 190 682
e 190 683
e 190 230
e 190 231
e 191 897
e 191 900
e 191 773
e 191 776
e 191 969
e 191 349
e 191 972
e 191 693
e 191 695
e 191 352
e 191 477
e 191 480
e 192 898
e 192 899
e 192 774
e 192 775
e 192 970
e 192 971
e 192 478
e 192 351
e 192 694
e 192 696
e 192 350
e 192 479
e 193 225
e 193 289
e 193 228
e 193 421
e 193 423
e 193 616
e 193 201
e 193 204
e 193 749
e 193 752
e 193 785
e 193 292
e 193 217
e 193 613
e 193 220
e 193 253
e 193 788
e 193 256
e 194 226
e 194 227
e 194 422
e 194 615
e 194 290
e 194 202
e 194 203
e 194 424
e 194 291
e 194 751
e 194 750
e 194 786
e 194 787
e 194 218
e 194 219
e 194 254
e 194 255
e 194 614
e 195 993
e 195 940
e 195 393
e 195 396
e 195 333
e 195 336
e 195 937
e 195 996
e 195 249
e 195 252
e 196 994
e 196 995
e 196 394
e 196 395
e 196 334
e 196 335
e 196 938
e 196 250
e 196 251
e 196 939
e 197 540
e 197 545
e 197 548
e 197 673
e 197 728
e 197 537
e 197 676
e 197 693
e 197 696
e 197 409
e 197 725
e 197 412
e 198 546
e 198 547
e 198 727
e 198 674
e 198 675
e 198 694
e 198 695
e 198 538
e 198 410
e 198 411
e 198 539
e 198 726
e 199 481
e 199 484
e 199 421
e 199 424
e 199 981
e 199 984
e 199 829
e 199 832
e 200 482
e 200 483
e 200 422
e 200 423
e 200 982
e 200 983
e 200 830
e 200 831